10J3M/DAT/10J3MUNL-14.dat
10 3
35.2841 35.2841
33.3253 33.3253
0.1463 0.1463
26.4368 26.4368
28.2197 28.2197
26.0421 26.0421
8.7219 8.7219
16.3855 16.3855
49.4324 49.4324
16.9187 16.9187
240.9128